--- Job feedOptimizer.gms Start 07/20/20 21:39:34 31.1.0 r55b6ce3 WEX-WEI x86 64bit/MS Windows
--- Applying:
    E:\31.1\gmsprmNT.txt
--- GAMS Parameters defined
    Input C:\Users\hasee\Documents\GitHub\GAMS-MIRO\feedopt\feedOptimizer.gms
    PageSize 0
    ScrDir C:\Users\hasee\Documents\GitHub\GAMS-MIRO\feedopt\225a\
    SysDir E:\31.1\
    LogOption 3
    ErrMsg 1
    ErrorLog 99
    IDE 1
    LstTitleLeftAligned 1
    IDCGenerateJSON conf_feedOptimizer/feedOptimizer_io.json
    IDCGenerateGDX data_feedOptimizer/default.gdx
GAMS 31.1.0   Copyright (C) 1987-2020 GAMS Development. All rights reserved
Licensee: Michael Ferris Research Group - Eval           G191008/0001AS-GEN
          UW-Madison Computer Sciences Dept.                         DCE244
          E:\31.1\gamslice.txt
          Evaluation license: Not for commercial or production use
--- Starting compilation
--- feedOptimizer.gms(255) 3 Mb
--- Starting execution: elapsed 0:00:00.027
--- feedOptimizer.gms(215) 4 Mb
--- Generating MIP model feedOptimizer
--- feedOptimizer.gms(217) 4 Mb
---   1 rows  1 columns  1 non-zeroes
--- Executing CPLEX: elapsed 0:00:00.045

IBM ILOG CPLEX   31.1.0 r55b6ce3 Released May 01, 2020 WEI x86 64bit/MS Window
--- GAMS/Cplex licensed for continuous and discrete problems.
Cplex 12.10.0.0

Reading data...
Starting Cplex...
Space for names approximately 0.00 Mb
Use option 'names no' to turn use of names off
Version identifier: 12.10.0.0 | 2019-11-26 | 843d4de2ae
CPXPARAM_Advance                                 0
CPXPARAM_Simplex_Display                         2
CPXPARAM_Threads                                 1
CPXPARAM_Parallel                                1
CPXPARAM_Simplex_Limits_Iterations               2000000000
CPXPARAM_TimeLimit                               30
CPXPARAM_Tune_TimeLimit                          6
Tried aggregator 1 time.
LP Presolve eliminated 1 rows and 1 columns.
All rows and columns eliminated.
Presolve time = 0.00 sec. (0.00 ticks)
LP status(1): optimal
Cplex Time: 0.00sec (det. 0.00 ticks)

Optimal solution found.
Objective :           0.000000

--- Restarting execution
--- feedOptimizer.gms(217) 2 Mb
--- Reading solution for model feedOptimizer
--- Executing after solve: elapsed 0:00:00.156
--- feedOptimizer.gms(253) 3 Mb
--- GDX File C:\Users\hasee\Documents\GitHub\GAMS-MIRO\feedopt\data_feedOptimizer/default.gdx
*** Status: Normal completion
--- Job feedOptimizer.gms Stop 07/20/20 21:39:34 elapsed 0:00:00.171

TRACE [2020-07-20 21:39:43] Logging facility initialised.
DEBUG [2020-07-20 21:39:43] Database connection established.
DEBUG [2020-07-20 21:39:43] Access Control initialised.
WARN [2020-07-20 21:39:43] There are orphaned tables in your database: 'feedoptimizer__scalars_out', 'feedoptimizer_bigs', 'feedoptimizer_height', 'feedoptimizer_width2', 'feedoptimizer_valc', 'feedoptimizer_time', 'feedoptimizer_sponsored'.

This could be caused because you used a different database schema in the past (e.g. due to different inputs and/or outputs). 
Note that you can remove orphaned database tables using the configuration mode ('Database management' section).
INFO [2020-07-20 21:39:43] New data: '1D.gdx' is being stored in the database. Please wait a until the import is finished.
DEBUG [2020-07-20 21:39:44] Db: Data was imported from table: '_sys_metadata_feedoptimizer' (Db.importDataset).
DEBUG [2020-07-20 21:39:44] Db: 812 rows in table: '_sys_metadata_feedoptimizer' were deleted. (Db.deleteRows)
DEBUG [2020-07-20 21:39:44] Db: Metadata (table: '_sys_metadata_feedoptimizer') was written to database. (Db.writeMetadata).
DEBUG [2020-07-20 21:39:44] Db: Metadata (table: '_sys_metadata_feedoptimizer') was added for scenario: '1D' (Scenario.writeMetadata).
DEBUG [2020-07-20 21:39:44] Db: Data was added to table: 'feedoptimizer_c' (Db.exportScenDataset).
DEBUG [2020-07-20 21:39:45] Db: Data was added to table: 'feedoptimizer_storyinfo' (Db.exportScenDataset).
DEBUG [2020-07-20 21:39:45] Db: Data was added to table: 'feedoptimizer_cscore' (Db.exportScenDataset).
DEBUG [2020-07-20 21:39:45] Db: Data was added to table: 'feedoptimizer__scalars' (Db.exportScenDataset).
DEBUG [2020-07-20 21:39:45] Db: Data was imported from table: '_sys_scenlocks_feedoptimizer' (Db.importDataset).
DEBUG [2020-07-20 21:39:45] Db: hasee: Lock was added for scenario: '8' (Scenario.lock).
INFO [2020-07-20 21:39:45] New data: '2D.gdx' is being stored in the database. Please wait a until the import is finished.
DEBUG [2020-07-20 21:39:45] Db: Data was imported from table: '_sys_metadata_feedoptimizer' (Db.importDataset).
DEBUG [2020-07-20 21:39:45] Db: 812 rows in table: '_sys_metadata_feedoptimizer' were deleted. (Db.deleteRows)
DEBUG [2020-07-20 21:39:45] Db: Metadata (table: '_sys_metadata_feedoptimizer') was written to database. (Db.writeMetadata).
DEBUG [2020-07-20 21:39:45] Db: Metadata (table: '_sys_metadata_feedoptimizer') was added for scenario: '2D' (Scenario.writeMetadata).
DEBUG [2020-07-20 21:39:45] Db: Data was added to table: 'feedoptimizer_c' (Db.exportScenDataset).
DEBUG [2020-07-20 21:39:45] Db: Data was added to table: 'feedoptimizer_storyinfo' (Db.exportScenDataset).
DEBUG [2020-07-20 21:39:45] Db: Data was added to table: 'feedoptimizer_cscore' (Db.exportScenDataset).
DEBUG [2020-07-20 21:39:45] Db: Data was added to table: 'feedoptimizer__scalars' (Db.exportScenDataset).
DEBUG [2020-07-20 21:39:45] Db: Data was imported from table: '_sys_scenlocks_feedoptimizer' (Db.importDataset).
DEBUG [2020-07-20 21:39:45] Db: 1 rows in table: '_sys_scenlocks_feedoptimizer' were deleted. (Db.deleteRows)
DEBUG [2020-07-20 21:39:45] Db: hasee: Lock was added for scenario: '9' (Scenario.lock).
INFO [2020-07-20 21:39:45] New data: 'default.gdx' is being stored in the database. Please wait a until the import is finished.
DEBUG [2020-07-20 21:39:45] Db: Data was imported from table: '_sys_metadata_feedoptimizer' (Db.importDataset).
DEBUG [2020-07-20 21:39:46] Db: 20 rows in table: '_sys_metadata_feedoptimizer' were deleted. (Db.deleteRows)
DEBUG [2020-07-20 21:39:46] Db: Metadata (table: '_sys_metadata_feedoptimizer') was written to database. (Db.writeMetadata).
DEBUG [2020-07-20 21:39:46] Db: Metadata (table: '_sys_metadata_feedoptimizer') was added for scenario: 'default' (Scenario.writeMetadata).
DEBUG [2020-07-20 21:39:46] Db: Data was added to table: 'feedoptimizer_c' (Db.exportScenDataset).
DEBUG [2020-07-20 21:39:46] Db: Data was added to table: 'feedoptimizer_storyinfo' (Db.exportScenDataset).
DEBUG [2020-07-20 21:39:46] Db: Data was added to table: 'feedoptimizer_cscore' (Db.exportScenDataset).
DEBUG [2020-07-20 21:39:46] Db: Data was added to table: 'feedoptimizer__scalars' (Db.exportScenDataset).
DEBUG [2020-07-20 21:39:46] Db: Data was imported from table: '_sys_scenlocks_feedoptimizer' (Db.importDataset).
DEBUG [2020-07-20 21:39:46] Db: hasee: Lock was added for scenario: '1' (Scenario.lock).
INFO [2020-07-20 21:39:54] Session started (model: 'feedoptimizer', user: 'hasee', workdir: 'C:/Users/hasee/Documents/GitHub/GAMS-MIRO/feedopt').
DEBUG [2020-07-20 21:39:54] Working directory was created: 'C:/Users/hasee/Documents/GitHub/GAMS-MIRO/feedopt'.
DEBUG [2020-07-20 21:39:54] Db: Data was imported from table: '_sys_metadata_feedoptimizer' (Db.importDataset).
DEBUG [2020-07-20 21:39:55] Scenario: '1' unlocked.
DEBUG [2020-07-20 21:39:55] Db: 1 rows in table: '_sys_scenlocks_feedoptimizer' were deleted. (Db.deleteRows)
DEBUG [2020-07-20 21:39:55] Scenario: '9' unlocked.
DEBUG [2020-07-20 21:39:55] Db: 1 rows in table: '_sys_scenlocks_feedoptimizer' were deleted. (Db.deleteRows)
DEBUG [2020-07-20 21:39:55] Scenario: '8' unlocked.
DEBUG [2020-07-20 21:39:55] Db: 1 rows in table: '_sys_scenlocks_feedoptimizer' were deleted. (Db.deleteRows)
DEBUG [2020-07-20 21:39:56] Sidebar menu item: 'inputData' selected.
DEBUG [2020-07-20 21:39:56] Loading and rendering scenarios: '9'.
DEBUG [2020-07-20 21:39:56] Db: Data was imported from table: 'feedoptimizer_result' (Db.importDataset).
DEBUG [2020-07-20 21:39:56] Db: Data was imported from table: 'feedoptimizer_c' (Db.importDataset).
DEBUG [2020-07-20 21:39:56] Db: Data was imported from table: 'feedoptimizer_storyinfo' (Db.importDataset).
DEBUG [2020-07-20 21:39:56] Db: Data was imported from table: 'feedoptimizer_cscore' (Db.importDataset).
DEBUG [2020-07-20 21:39:56] Db: Data was imported from table: 'feedoptimizer__scalars' (Db.importDataset).
DEBUG [2020-07-20 21:39:56] Db: A table named: '_sys_scripts_feedoptimizer' does not exist in the database (Db.importDataset).
DEBUG [2020-07-20 21:39:56] Scenario: 'New Scenario' closed.
DEBUG [2020-07-20 21:39:56] Db: Data was imported from table: '_sys_metadata_feedoptimizer' (Db.importDataset).
DEBUG [2020-07-20 21:39:56] Db: Data was imported from table: '_sys_scenlocks_feedoptimizer' (Db.importDataset).
DEBUG [2020-07-20 21:39:56] Db: hasee: Lock was added for scenario: '9' (Scenario.lock).
DEBUG [2020-07-20 21:39:57] Dataset: c loaded successfully (mode: scen, overwrite: FALSE)
DEBUG [2020-07-20 21:39:57] Dataset: storyinfo loaded successfully (mode: scen, overwrite: FALSE)
DEBUG [2020-07-20 21:39:57] Dataset: cscore loaded successfully (mode: scen, overwrite: FALSE)
DEBUG [2020-07-20 21:39:57] Scenario: '9' was loaded into UI
DEBUG [2020-07-20 21:40:00] Solve button clicked (model: 'feedoptimizer').
TRACE [2020-07-20 21:40:00] Dataset: User behavior case saved in dataTmp.
TRACE [2020-07-20 21:40:01] Dataset: Storyinfo saved in dataTmp.
TRACE [2020-07-20 21:40:01] Dataset: Story score at different scenarios saved in dataTmp.
TRACE [2020-07-20 21:40:01] Dataset: Total time saved in dataTmp.
TRACE [2020-07-20 21:40:01] Dataset: Interface height saved in dataTmp.
TRACE [2020-07-20 21:40:01] Dataset: Interface width saved in dataTmp.
TRACE [2020-07-20 21:40:01] Dataset: Feed retrieved time saved in dataTmp.
TRACE [2020-07-20 21:40:01] Dataset: Time window for freshness saved in dataTmp.
TRACE [2020-07-20 21:40:01] Dataset: Dimension of story(1/2) saved in dataTmp.
TRACE [2020-07-20 21:40:01] Dataset: Sponsor ratio saved in dataTmp.
TRACE [2020-07-20 21:40:01] Dataset: Initial ratio saved in dataTmp.
DEBUG [2020-07-20 21:40:01] Db: Data was imported from table: '_sys_attach_feedoptimizer' (Db.importDataset).
DEBUG [2020-07-20 21:40:01] Sidebar menu item: 'outputData' selected.
DEBUG [2020-07-20 21:40:01] Sidebar menu item: 'gamsinter' selected.
DEBUG [2020-07-20 21:40:05] Db: Data was imported from table: '_sys_attach_feedoptimizer' (Db.importDataset).
DEBUG [2020-07-20 21:40:05] Sidebar menu item: 'outputData' selected.
DEBUG [2020-07-20 21:40:07] hasee: Save As button clicked.
DEBUG [2020-07-20 21:40:20] Name for new scenario entered: 2D_feed.
DEBUG [2020-07-20 21:40:20] Db: Data was imported from table: '_sys_metadata_feedoptimizer' (Db.importDataset).
TRACE [2020-07-20 21:40:20] Db: Scenario with name: '2D_feed' does not yet exist for user: 'hasee' (Db.checkScenExists returns TRUE).
TRACE [2020-07-20 21:40:20] Dataset: User behavior case saved in dataTmp.
TRACE [2020-07-20 21:40:20] Dataset: Storyinfo saved in dataTmp.
TRACE [2020-07-20 21:40:20] Dataset: Story score at different scenarios saved in dataTmp.
TRACE [2020-07-20 21:40:20] Dataset: Total time saved in dataTmp.
TRACE [2020-07-20 21:40:20] Dataset: Interface height saved in dataTmp.
TRACE [2020-07-20 21:40:20] Dataset: Interface width saved in dataTmp.
TRACE [2020-07-20 21:40:20] Dataset: Feed retrieved time saved in dataTmp.
TRACE [2020-07-20 21:40:20] Dataset: Time window for freshness saved in dataTmp.
TRACE [2020-07-20 21:40:20] Dataset: Dimension of story(1/2) saved in dataTmp.
TRACE [2020-07-20 21:40:20] Dataset: Sponsor ratio saved in dataTmp.
TRACE [2020-07-20 21:40:20] Dataset: Initial ratio saved in dataTmp.
DEBUG [2020-07-20 21:40:20] Scenario: '9' unlocked.
DEBUG [2020-07-20 21:40:20] Db: 1 rows in table: '_sys_scenlocks_feedoptimizer' were deleted. (Db.deleteRows)
DEBUG [2020-07-20 21:40:20] Db: Data was imported from table: '_sys_metadata_feedoptimizer' (Db.importDataset).
DEBUG [2020-07-20 21:40:20] Db: Metadata (table: '_sys_metadata_feedoptimizer') was written to database. (Db.writeMetadata).
DEBUG [2020-07-20 21:40:20] Db: Metadata (table: '_sys_metadata_feedoptimizer') was added for scenario: '2D_feed' (Scenario.writeMetadata).
DEBUG [2020-07-20 21:40:21] Db: Data was imported from table: '_sys_metadata_feedoptimizer' (Db.importDataset).
DEBUG [2020-07-20 21:40:21] Db: 4 rows in table: '_sys_attach_feedoptimizer' were deleted. (Db.deleteRows)
DEBUG [2020-07-20 21:40:21] Db: Data was added to table: '_sys_attach_feedoptimizer' (Db.exportScenDataset).
DEBUG [2020-07-20 21:40:21] Db: Data was added to table: 'feedoptimizer_result' (Db.exportScenDataset).
DEBUG [2020-07-20 21:40:21] Db: Data was added to table: 'feedoptimizer_c' (Db.exportScenDataset).
DEBUG [2020-07-20 21:40:21] Db: Data was added to table: 'feedoptimizer_storyinfo' (Db.exportScenDataset).
DEBUG [2020-07-20 21:40:21] Db: Data was added to table: 'feedoptimizer_cscore' (Db.exportScenDataset).
DEBUG [2020-07-20 21:40:21] Db: Data was added to table: 'feedoptimizer__scalars' (Db.exportScenDataset).
DEBUG [2020-07-20 21:40:21] Db: Data was imported from table: '_sys_scenlocks_feedoptimizer' (Db.importDataset).
DEBUG [2020-07-20 21:40:21] Db: hasee: Lock was added for scenario: '10' (Scenario.lock).
DEBUG [2020-07-20 21:40:21] Db: Data was added to table: '_sys_trace_feedoptimizer' (Db.exportScenDataset).
DEBUG [2020-07-20 21:40:21] hasee: Scenario saved to database (Scenario: 2D_feed).
DEBUG [2020-07-20 21:40:24] Sidebar menu item: 'inputData' selected.
DEBUG [2020-07-20 21:40:25] hasee: Import input data button clicked.
DEBUG [2020-07-20 21:40:25] Db: Data was imported from table: '_sys_metadata_feedoptimizer' (Db.importDataset).
DEBUG [2020-07-20 21:40:30] Confirm load scenario button clicked.
DEBUG [2020-07-20 21:40:31] Overwrite scenario button clicked.
DEBUG [2020-07-20 21:40:32] Loading and rendering scenarios: '8'.
DEBUG [2020-07-20 21:40:32] Db: Data was imported from table: 'feedoptimizer_result' (Db.importDataset).
DEBUG [2020-07-20 21:40:32] Db: Data was imported from table: 'feedoptimizer_c' (Db.importDataset).
DEBUG [2020-07-20 21:40:32] Db: Data was imported from table: 'feedoptimizer_storyinfo' (Db.importDataset).
DEBUG [2020-07-20 21:40:32] Db: Data was imported from table: 'feedoptimizer_cscore' (Db.importDataset).
DEBUG [2020-07-20 21:40:32] Db: Data was imported from table: 'feedoptimizer__scalars' (Db.importDataset).
DEBUG [2020-07-20 21:40:32] Db: A table named: '_sys_scripts_feedoptimizer' does not exist in the database (Db.importDataset).
DEBUG [2020-07-20 21:40:32] Scenario: '2D_feed' closed.
DEBUG [2020-07-20 21:40:32] Db: Data was imported from table: '_sys_metadata_feedoptimizer' (Db.importDataset).
DEBUG [2020-07-20 21:40:32] Db: Data was imported from table: '_sys_scenlocks_feedoptimizer' (Db.importDataset).
DEBUG [2020-07-20 21:40:32] Db: hasee: Lock was added for scenario: '8' (Scenario.lock).
DEBUG [2020-07-20 21:40:32] Dataset: c loaded successfully (mode: scen, overwrite: TRUE)
DEBUG [2020-07-20 21:40:32] Dataset: storyinfo loaded successfully (mode: scen, overwrite: TRUE)
DEBUG [2020-07-20 21:40:32] Dataset: cscore loaded successfully (mode: scen, overwrite: TRUE)
DEBUG [2020-07-20 21:40:32] Scenario: '8' was loaded into UI
DEBUG [2020-07-20 21:40:37] Solve button clicked (model: 'feedoptimizer').
TRACE [2020-07-20 21:40:37] Dataset: User behavior case saved in dataTmp.
TRACE [2020-07-20 21:40:37] Dataset: Storyinfo saved in dataTmp.
TRACE [2020-07-20 21:40:37] Dataset: Story score at different scenarios saved in dataTmp.
TRACE [2020-07-20 21:40:37] Dataset: Total time saved in dataTmp.
TRACE [2020-07-20 21:40:37] Dataset: Interface height saved in dataTmp.
TRACE [2020-07-20 21:40:37] Dataset: Interface width saved in dataTmp.
TRACE [2020-07-20 21:40:37] Dataset: Feed retrieved time saved in dataTmp.
TRACE [2020-07-20 21:40:37] Dataset: Time window for freshness saved in dataTmp.
TRACE [2020-07-20 21:40:37] Dataset: Dimension of story(1/2) saved in dataTmp.
TRACE [2020-07-20 21:40:37] Dataset: Sponsor ratio saved in dataTmp.
TRACE [2020-07-20 21:40:37] Dataset: Initial ratio saved in dataTmp.
DEBUG [2020-07-20 21:40:37] Db: Data was imported from table: '_sys_attach_feedoptimizer' (Db.importDataset).
DEBUG [2020-07-20 21:40:38] Sidebar menu item: 'gamsinter' selected.
DEBUG [2020-07-20 21:40:43] Sidebar menu item: 'outputData' selected.
DEBUG [2020-07-20 21:40:45] Sidebar menu item: 'inputData' selected.
DEBUG [2020-07-20 21:40:46] Sidebar menu item: 'outputData' selected.
DEBUG [2020-07-20 21:40:47] Sidebar menu item: 'gamsinter' selected.
DEBUG [2020-07-20 21:41:10] Db: Data was imported from table: '_sys_attach_feedoptimizer' (Db.importDataset).
DEBUG [2020-07-20 21:41:10] Scenario: '10' unlocked.
DEBUG [2020-07-20 21:41:10] Db: 1 rows in table: '_sys_scenlocks_feedoptimizer' were deleted. (Db.deleteRows)
DEBUG [2020-07-20 21:41:10] Sidebar menu item: 'outputData' selected.
DEBUG [2020-07-20 21:41:15] hasee: Save As button clicked.
DEBUG [2020-07-20 21:41:20] Name for new scenario entered: 1D_feed.
DEBUG [2020-07-20 21:41:20] Db: Data was imported from table: '_sys_metadata_feedoptimizer' (Db.importDataset).
TRACE [2020-07-20 21:41:20] Db: Scenario with name: '1D_feed' does not yet exist for user: 'hasee' (Db.checkScenExists returns TRUE).
TRACE [2020-07-20 21:41:20] Dataset: User behavior case saved in dataTmp.
TRACE [2020-07-20 21:41:20] Dataset: Storyinfo saved in dataTmp.
TRACE [2020-07-20 21:41:20] Dataset: Story score at different scenarios saved in dataTmp.
TRACE [2020-07-20 21:41:20] Dataset: Total time saved in dataTmp.
TRACE [2020-07-20 21:41:21] Dataset: Interface height saved in dataTmp.
TRACE [2020-07-20 21:41:21] Dataset: Interface width saved in dataTmp.
TRACE [2020-07-20 21:41:21] Dataset: Feed retrieved time saved in dataTmp.
TRACE [2020-07-20 21:41:21] Dataset: Time window for freshness saved in dataTmp.
TRACE [2020-07-20 21:41:21] Dataset: Dimension of story(1/2) saved in dataTmp.
TRACE [2020-07-20 21:41:21] Dataset: Sponsor ratio saved in dataTmp.
TRACE [2020-07-20 21:41:21] Dataset: Initial ratio saved in dataTmp.
DEBUG [2020-07-20 21:41:21] Scenario: '8' unlocked.
DEBUG [2020-07-20 21:41:21] Db: 1 rows in table: '_sys_scenlocks_feedoptimizer' were deleted. (Db.deleteRows)
DEBUG [2020-07-20 21:41:21] Db: Data was imported from table: '_sys_metadata_feedoptimizer' (Db.importDataset).
DEBUG [2020-07-20 21:41:21] Db: Metadata (table: '_sys_metadata_feedoptimizer') was written to database. (Db.writeMetadata).
DEBUG [2020-07-20 21:41:21] Db: Metadata (table: '_sys_metadata_feedoptimizer') was added for scenario: '1D_feed' (Scenario.writeMetadata).
DEBUG [2020-07-20 21:41:21] Db: Data was imported from table: '_sys_metadata_feedoptimizer' (Db.importDataset).
DEBUG [2020-07-20 21:41:21] Db: 0 rows in table: '_sys_attach_feedoptimizer' were deleted. (Db.deleteRows)
DEBUG [2020-07-20 21:41:21] Db: Data was added to table: '_sys_attach_feedoptimizer' (Db.exportScenDataset).
DEBUG [2020-07-20 21:41:21] Db: Data was added to table: 'feedoptimizer_result' (Db.exportScenDataset).
DEBUG [2020-07-20 21:41:21] Db: Data was added to table: 'feedoptimizer_c' (Db.exportScenDataset).
DEBUG [2020-07-20 21:41:21] Db: Data was added to table: 'feedoptimizer_storyinfo' (Db.exportScenDataset).
DEBUG [2020-07-20 21:41:21] Db: Data was added to table: 'feedoptimizer_cscore' (Db.exportScenDataset).
DEBUG [2020-07-20 21:41:21] Db: Data was added to table: 'feedoptimizer__scalars' (Db.exportScenDataset).
DEBUG [2020-07-20 21:41:21] Db: Data was imported from table: '_sys_scenlocks_feedoptimizer' (Db.importDataset).
DEBUG [2020-07-20 21:41:21] Db: hasee: Lock was added for scenario: '11' (Scenario.lock).
DEBUG [2020-07-20 21:41:22] Db: Data was added to table: '_sys_trace_feedoptimizer' (Db.exportScenDataset).
